c "256840.clq"
p edge 139 540
e 1 5
e 1 6
e 1 8
e 1 9
e 1 19
e 1 31
e 1 52
e 1 68
e 1 85
e 1 86
e 1 88
e 1 119
e 1 132
e 1 138
e 2 5
e 2 6
e 2 7
e 2 8
e 2 10
e 2 12
e 2 14
e 2 16
e 2 20
e 2 21
e 2 24
e 2 40
e 2 47
e 2 54
e 2 55
e 2 75
e 2 76
e 2 81
e 2 82
e 2 119
e 2 127
e 3 5
e 3 11
e 3 22
e 3 33
e 3 50
e 3 52
e 3 98
e 4 5
e 4 6
e 4 7
e 4 8
e 4 11
e 4 14
e 4 15
e 4 18
e 4 25
e 4 29
e 4 31
e 4 32
e 4 34
e 4 35
e 4 39
e 4 46
e 4 64
e 4 99
e 4 103
e 4 106
e 4 126
e 5 6
e 5 7
e 5 8
e 5 10
e 5 14
e 5 15
e 5 16
e 5 22
e 5 25
e 5 27
e 5 28
e 5 30
e 5 42
e 5 51
e 5 54
e 5 57
e 5 59
e 5 63
e 5 70
e 5 74
e 5 79
e 5 80
e 5 89
e 5 98
e 5 101
e 5 107
e 5 108
e 5 116
e 5 117
e 5 119
e 5 125
e 5 130
e 5 133
e 5 138
e 6 7
e 6 9
e 6 10
e 6 12
e 6 20
e 6 21
e 6 23
e 6 26
e 6 46
e 6 53
e 6 62
e 6 65
e 6 85
e 6 91
e 6 100
e 6 101
e 6 124
e 6 125
e 6 126
e 6 130
e 6 132
e 6 138
e 6 139
e 7 9
e 7 12
e 7 13
e 7 23
e 7 27
e 7 36
e 7 38
e 7 41
e 7 50
e 7 55
e 7 72
e 7 120
e 8 9
e 8 13
e 8 15
e 8 17
e 8 19
e 8 20
e 8 27
e 8 28
e 8 35
e 8 42
e 8 48
e 8 49
e 8 50
e 8 54
e 8 61
e 8 62
e 8 71
e 8 73
e 8 77
e 8 81
e 8 91
e 8 96
e 8 97
e 8 104
e 8 123
e 8 127
e 9 10
e 9 11
e 9 16
e 9 17
e 9 18
e 9 24
e 9 26
e 9 29
e 9 36
e 9 43
e 9 57
e 9 58
e 9 61
e 9 89
e 9 106
e 9 137
e 9 139
e 10 11
e 10 12
e 10 13
e 10 15
e 10 35
e 10 40
e 10 112
e 10 125
e 11 14
e 11 17
e 11 18
e 11 19
e 11 21
e 11 24
e 11 29
e 11 30
e 11 36
e 11 39
e 11 46
e 11 48
e 11 53
e 11 64
e 11 69
e 11 78
e 11 83
e 11 84
e 11 89
e 11 102
e 11 104
e 11 109
e 11 110
e 11 118
e 11 122
e 12 13
e 12 24
e 12 26
e 12 28
e 12 33
e 12 37
e 12 38
e 12 41
e 12 44
e 12 54
e 12 74
e 12 96
e 12 116
e 13 17
e 13 27
e 13 32
e 13 37
e 13 51
e 13 55
e 13 66
e 13 77
e 13 92
e 13 93
e 13 100
e 13 118
e 14 52
e 14 55
e 14 56
e 14 81
e 14 88
e 14 103
e 14 105
e 14 107
e 15 16
e 15 19
e 15 22
e 15 29
e 15 31
e 15 38
e 15 41
e 15 48
e 15 66
e 15 68
e 15 78
e 15 88
e 15 90
e 15 93
e 15 99
e 15 118
e 16 18
e 16 20
e 16 21
e 16 23
e 16 31
e 16 32
e 16 49
e 16 58
e 16 77
e 17 22
e 17 47
e 17 62
e 17 80
e 17 94
e 17 96
e 17 113
e 18 25
e 18 70
e 18 75
e 18 106
e 19 25
e 19 35
e 19 47
e 19 48
e 19 110
e 19 137
e 20 30
e 20 33
e 20 59
e 20 100
e 20 112
e 20 128
e 20 138
e 21 23
e 21 34
e 21 39
e 21 56
e 21 61
e 21 69
e 21 78
e 21 81
e 21 95
e 21 97
e 21 104
e 21 139
e 22 26
e 22 60
e 22 78
e 22 84
e 23 37
e 23 42
e 23 61
e 23 64
e 23 72
e 23 82
e 23 113
e 23 115
e 23 116
e 23 135
e 24 30
e 24 37
e 24 40
e 24 43
e 24 60
e 24 65
e 24 67
e 24 117
e 25 28
e 25 67
e 25 79
e 25 92
e 26 36
e 26 44
e 26 59
e 26 111
e 26 113
e 26 136
e 27 34
e 27 40
e 27 45
e 27 49
e 27 57
e 27 60
e 27 70
e 27 76
e 27 105
e 27 111
e 27 115
e 27 120
e 27 129
e 28 32
e 28 39
e 28 43
e 28 46
e 28 47
e 28 67
e 28 90
e 28 92
e 28 112
e 28 127
e 29 34
e 29 45
e 29 72
e 29 74
e 29 75
e 29 109
e 30 103
e 30 105
e 31 90
e 32 33
e 32 42
e 32 45
e 32 111
e 33 68
e 33 76
e 33 83
e 33 87
e 33 98
e 33 119
e 33 123
e 34 38
e 34 43
e 34 45
e 34 92
e 34 134
e 35 56
e 35 84
e 35 110
e 35 136
e 36 50
e 36 51
e 36 58
e 36 63
e 36 66
e 36 71
e 36 114
e 36 116
e 36 121
e 37 41
e 37 53
e 37 63
e 37 65
e 37 71
e 37 86
e 37 87
e 37 89
e 37 129
e 38 69
e 38 96
e 38 122
e 39 97
e 39 126
e 40 58
e 40 60
e 42 44
e 42 56
e 42 70
e 42 71
e 42 85
e 42 87
e 42 91
e 42 110
e 42 115
e 42 132
e 43 44
e 43 109
e 44 63
e 44 120
e 44 122
e 44 130
e 45 52
e 45 53
e 45 62
e 45 65
e 45 76
e 45 82
e 45 111
e 46 49
e 46 51
e 46 67
e 46 74
e 46 80
e 46 90
e 46 91
e 46 122
e 47 59
e 47 99
e 47 135
e 48 69
e 48 73
e 48 108
e 49 102
e 49 134
e 52 72
e 52 93
e 54 57
e 54 94
e 54 104
e 55 82
e 55 108
e 55 124
e 56 83
e 56 84
e 56 102
e 56 107
e 56 121
e 57 64
e 57 79
e 57 88
e 58 68
e 58 95
e 58 114
e 59 102
e 60 73
e 60 114
e 60 126
e 61 73
e 61 77
e 61 87
e 61 105
e 61 117
e 62 83
e 62 94
e 62 100
e 62 121
e 63 66
e 63 94
e 64 86
e 66 99
e 66 120
e 66 135
e 66 136
e 67 93
e 67 101
e 67 115
e 68 129
e 69 75
e 69 79
e 69 85
e 69 97
e 69 106
e 69 107
e 69 131
e 73 133
e 73 139
e 74 80
e 75 134
e 77 133
e 79 95
e 81 86
e 81 124
e 81 129
e 81 135
e 82 112
e 83 95
e 83 123
e 84 101
e 84 121
e 86 128
e 86 132
e 87 117
e 87 131
e 93 98
e 93 109
e 94 103
e 94 128
e 94 137
e 100 108
e 100 133
e 101 131
e 103 128
e 104 114
e 104 125
e 106 124
e 108 113
e 109 123
e 110 118
e 110 134
e 112 130
e 114 131
e 118 136
e 119 127
e 121 137
